sat
(model
  (define-fun |m$unknown:2|
    ( (v_0 Int) (v_1 Int) ) Bool
    (and (or (= (+ v_0 (- 91)) 0) (>= v_1 99)) (or (and (>= v_0 91) (or (= (+ v_0 (- 91)) 0) (>= v_1 99)) (= (+ (* (- 1) v_1) v_0 10) 0)) (and (= (+ v_0 (- 91)) 0) (not (= (+ (* (- 1) v_1) v_0 10) 0)))))
  )
)
